NAME          PROBLEM1
ROWS
 N  COST
 L  R1
 L  R2
 L  R3
COLUMNS
    Y1       COST           19
    Y1       R1              3
    Y1       R2              1
    Y1       R3              4
    Y2       COST           13
    Y2       R1              2
    Y2       R2              1
    Y2       R3              3
    Y3       COST           12
    Y3       R1              1
    Y3       R2              1
    Y3       R3              3
    Y4       COST           17
    Y4       R1              2
    Y4       R2              1
    Y4       R3              4
RHS
    RHS1     R1            225
    RHS1     R2            117
    RHS1     R3            420
BOUNDS
 LO BOUND    Y1              0
 LO BOUND    Y2              0
 LO BOUND    Y3              0
 LO BOUND    Y4              0
ENDATA
